p cnf 219 50
64 67 -102 0
-130 -197 63 0
-129 -202 199 0
-182 -74 6 0
-1 -126 146 0
-210 -75 115 0
-52 136 -73 0
-160 33 198 0
-23 -169 -12 0
-51 30 92 0
193 -219 28 0
144 74 7 0
90 -195 -92 0
-69 -13 195 0
-107 92 131 0
67 17 -125 0
-149 209 105 0
152 111 150 0
145 86 175 0
24 167 -147 0
128 97 -55 0
22 76 -101 0
-193 -151 -55 0
-82 -49 -32 0
22 -197 170 0
160 -38 136 0
147 130 -98 0
-163 186 -204 0
-185 -33 165 0
-149 181 -87 0
-77 125 -51 0
20 191 -107 0
114 -40 192 0
-157 -126 -208 0
-147 -173 -61 0
-96 -178 -8 0
-178 -100 119 0
96 -19 -198 0
-50 -178 80 0
49 43 -19 0
45 -65 137 0
179 141 43 0
-50 -164 -93 0
-203 -208 83 0
123 -174 22 0
-199 -44 -46 0
125 -12 -126 0
-187 -9 82 0
-107 -44 -192 0
-83 -76 -198 0
